
Gurobi 6.5.2 (win64) logging started 07/24/16 17:27:57


Gurobi 6.5.2 (win64) logging started 07/24/16 17:27:57

Optimize a model with 2762 rows, 722 columns and 7147 nonzeros
Coefficient statistics:
  Matrix range    [6e-08, 3e+02]
  Objective range [1e+00, 1e+00]
  Bounds range    [1e+00, 1e+00]
  RHS range       [6e-06, 2e+03]
Presolve removed 2138 rows and 86 columns
Presolve time: 0.02s
Presolved: 624 rows, 636 columns, 2978 nonzeros
Variable types: 261 continuous, 375 integer (375 binary)

Root relaxation: objective 1.768824e+01, 2158 iterations, 0.06 seconds

    Nodes    |    Current Node    |     Objective Bounds      |     Work
 Expl Unexpl |  Obj  Depth IntInf | Incumbent    BestBd   Gap | It/Node Time

     0     0   17.68824    0   95          -   17.68824      -     -    0s
H    0     0                      18.8950051   17.68824  6.39%     -    0s
     0     0   18.31544    0   79   18.89501   18.31544  3.07%     -    0s
H    0     0                      18.8462049   18.31544  2.82%     -    0s
H    0     0                      18.8003897   18.31544  2.58%     -    0s
H    0     0                      18.7602026   18.31544  2.37%     -    0s
H    0     0                      18.7564805   18.31544  2.35%     -    0s
     0     0   18.34809    0   87   18.75648   18.34809  2.18%     -    0s
     0     0   18.34809    0   57   18.75648   18.34809  2.18%     -    0s
     0     0   18.35116    0   70   18.75648   18.35116  2.16%     -    0s
     0     0   18.35469    0   73   18.75648   18.35469  2.14%     -    0s
     0     0   18.35716    0   65   18.75648   18.35716  2.13%     -    0s
H    0     0                      18.7409743   18.35716  2.05%     -    0s
     0     0   18.36504    0   63   18.74097   18.36504  2.01%     -    0s
     0     0   18.37051    0   64   18.74097   18.37051  1.98%     -    0s
     0     0   18.37474    0   63   18.74097   18.37474  1.95%     -    0s
     0     0   18.37541    0   63   18.74097   18.37541  1.95%     -    0s
     0     0   18.37541    0   66   18.74097   18.37541  1.95%     -    0s
     0     0   18.38084    0   66   18.74097   18.38084  1.92%     -    0s
     0     0   18.38120    0   67   18.74097   18.38120  1.92%     -    0s
     0     0   18.39080    0   62   18.74097   18.39080  1.87%     -    0s
     0     0   18.39080    0   65   18.74097   18.39080  1.87%     -    0s
     0     0   18.39205    0   69   18.74097   18.39205  1.86%     -    0s
     0     0   18.39349    0   72   18.74097   18.39349  1.85%     -    0s
     0     0   18.39349    0   57   18.74097   18.39349  1.85%     -    0s
H    0     0                      18.7268823   18.39349  1.78%     -    0s
     0     2   18.39349    0   57   18.72688   18.39349  1.78%     -    0s
*   25     5              17      18.6504933   18.50032  0.81%   8.1    0s
*  766     0              12      18.6466482   18.59683  0.27%   4.8    0s

Cutting planes:
  Gomory: 1
  MIR: 22

Explored 819 nodes (7061 simplex iterations) in 0.36 seconds
Thread count was 8 (of 8 available processors)

Optimal solution found (tolerance 1.00e-04)
Best objective 1.864664822719e+01, best bound 1.864664822719e+01, gap 0.0%

Wrote requested result file 'H1\instance11\\Results11E_Sol6.lp'

